20180524 720 0 0 0
20170525 770 3000 0 0
20160513 560 0 0 0
20150529 430 0 0 0
20140519 370 0 0 0
20130517 330 0 0 0
20120517 300 1000 0 0
20110523 280 0 0 0
20100527 200 3000 0 0
20090424 200 0 0 0
20080328 0 10000 0 0
20070418 200 0 0 0
20060529 200 0 0 0
20050808 0 3500 0 0
20050622 200 3000 0 0
